<?xml version="1.0" encoding="UTF-8"?><osil xmlns="os.optimizationservices.org" xmlns:xsi="http://www.w3.org/2001/XMLSchema-instance" xsi:schemaLocation="os.optimizationservices.org http://www.optimizationservices.org/schemas/2.0/OSiL.xsd"><instanceHeader><name>batchdes</name></instanceHeader><instanceData><variables numberOfVariables="19"><var name="b1" type="B" ub="1"/><var name="b2" type="B" ub="1"/><var name="b3" type="B" ub="1"/><var name="b4" type="B" ub="1"/><var name="b5" type="B" ub="1"/><var name="b6" type="B" ub="1"/><var name="b7" type="B" ub="1"/><var name="b8" type="B" ub="1"/><var name="b9" type="B" ub="1"/><var name="x10" lb="5.52146091786225" ub="7.82404601085629"/><var name="x11" lb="5.52146091786225" ub="7.82404601085629"/><var name="x12" lb="5.52146091786225" ub="7.82404601085629"/><var name="x13" lb="5.40367788220586" ub="6.4377516497364"/><var name="x14" lb="4.60517018598809" ub="6.03228654162824"/><var name="x15" lb="1.89711998488588" ub="2.99573227355399"/><var name="x16" lb="1.38629436111989" ub="2.484906649788"/><var name="x17" ub="1.09861228866811"/><var name="x18" ub="1.09861228866811"/><var name="x19" ub="1.09861228866811"/></variables><objectives><obj maxOrMin="min" name="defObj_objvar" numberOfObjCoef="0"/></objectives><constraints numberOfConstraints="19"><con name="e1" lb=".693147180559945"/><con name="e2" lb="1.09861228866811"/><con name="e3" lb="1.38629436111989"/><con name="e4" lb="1.38629436111989"/><con name="e5" lb="1.79175946922805"/><con name="e6" lb="1.09861228866811"/><con name="e7" lb="2.07944154167984"/><con name="e8" lb="2.99573227355399"/><con name="e9" lb="1.38629436111989"/><con name="e10" lb="2.30258509299405"/><con name="e11" lb="2.484906649788"/><con name="e12" lb="1.09861228866811"/><con name="e13" ub="6e3"/><con name="e14" lb="0" ub="0"/><con name="e15" lb="0" ub="0"/><con name="e16" lb="0" ub="0"/><con name="e17" lb="1" ub="1"/><con name="e18" lb="1" ub="1"/><con name="e19" lb="1" ub="1"/></constraints><linearConstraintCoefficients numberOfValues="42"><start><el mult="13" incr="2">0</el><el mult="7" incr="3">24</el></start><colIdx><el>9</el><el>12</el><el>10</el><el>12</el><el>11</el><el>12</el><el>9</el><el>13</el><el>10</el><el>13</el><el>11</el><el>13</el><el>14</el><el>16</el><el>14</el><el>17</el><el>14</el><el>18</el><el>15</el><el>16</el><el>15</el><el>17</el><el>15</el><el>18</el><el>3</el><el>6</el><el>16</el><el>4</el><el>7</el><el>17</el><el>5</el><el>8</el><el>18</el><el mult="3" incr="3">0</el><el mult="3" incr="3">1</el><el mult="3" incr="3">2</el></colIdx><value><el>1</el><el>-1</el><el>1</el><el>-1</el><el>1</el><el>-1</el><el>1</el><el>-1</el><el>1</el><el>-1</el><el>1</el><el>-1</el><el mult="12">1</el><el>-.693147180559945</el><el>-1.09861228866811</el><el>1</el><el>-.693147180559945</el><el>-1.09861228866811</el><el>1</el><el>-.693147180559945</el><el>-1.09861228866811</el><el mult="10">1</el></value></linearConstraintCoefficients><nonlinearExpressions numberOfNonlinearExpressions="2"><nl idx="-1"><sum><product><exp><sum><variable idx="9" coef=".6"/><variable idx="16"/></sum></exp><number value="2.5e2"/></product><product><exp><sum><variable idx="10" coef=".6"/><variable idx="17"/></sum></exp><number value="500"/></product><product><exp><sum><variable idx="11" coef=".6"/><variable idx="18"/></sum></exp><number value="3.4e2"/></product></sum></nl><nl idx="12"><sum><product><exp><sum><variable idx="12" coef="-1"/><variable idx="14"/></sum></exp><number value="2e5"/></product><product><exp><sum><variable idx="13" coef="-1"/><variable idx="15"/></sum></exp><number value="1.5e5"/></product></sum></nl></nonlinearExpressions></instanceData></osil>